c Generated map
c Size: 15 * 15, weights in range: 1 to 10, walls: True, with ratio 0.05
c dim 1 of 4
c
p sp 225 380
c graph contains 225 nodes and 380 arcs
c
a 1 16 1
a 16 1 1
a 1 2 8
a 2 1 8
a 2 17 1
a 17 2 1
a 2 3 7
a 3 2 7
a 3 18 5
a 18 3 5
a 3 4 9
a 4 3 9
a 4 19 2
a 19 4 2
a 4 5 3
a 5 4 3
a 5 20 4
a 20 5 4
a 5 6 3
a 6 5 3
a 6 21 8
a 21 6 8
a 6 7 3
a 7 6 3
a 7 22 5
a 22 7 5
a 7 8 7
a 8 7 7
a 8 9 5
a 9 8 5
a 9 24 10
a 24 9 10
a 9 10 8
a 10 9 8
a 10 25 4
a 25 10 4
a 10 11 5
a 11 10 5
a 11 26 3
a 26 11 3
a 11 12 2
a 12 11 2
a 12 27 2
a 27 12 2
a 12 13 5
a 13 12 5
a 13 28 8
a 28 13 8
a 13 14 3
a 14 13 3
a 14 29 4
a 29 14 4
a 14 15 2
a 15 14 2
a 15 30 3
a 30 15 3
a 16 31 8
a 31 16 8
a 16 17 6
a 17 16 6
a 17 32 3
a 32 17 3
a 17 18 5
a 18 17 5
a 18 33 8
a 33 18 8
a 18 19 5
a 19 18 5
a 19 34 8
a 34 19 8
a 19 20 9
a 20 19 9
a 20 35 7
a 35 20 7
a 20 21 4
a 21 20 4
a 21 36 6
a 36 21 6
a 21 22 9
a 22 21 9
a 22 37 5
a 37 22 5
a 24 39 6
a 39 24 6
a 24 25 9
a 25 24 9
a 25 40 6
a 40 25 6
a 25 26 4
a 26 25 4
a 26 41 7
a 41 26 7
a 26 27 3
a 27 26 3
a 27 42 7
a 42 27 7
a 27 28 1
a 28 27 1
a 28 43 10
a 43 28 10
a 28 29 1
a 29 28 1
a 29 44 6
a 44 29 6
a 29 30 1
a 30 29 1
a 30 45 7
a 45 30 7
a 31 46 7
a 46 31 7
a 31 32 7
a 32 31 7
a 32 47 2
a 47 32 2
a 32 33 3
a 33 32 3
a 33 48 9
a 48 33 9
a 33 34 9
a 34 33 9
a 34 49 10
a 49 34 10
a 34 35 9
a 35 34 9
a 35 50 9
a 50 35 9
a 35 36 4
a 36 35 4
a 36 51 2
a 51 36 2
a 36 37 2
a 37 36 2
a 37 52 8
a 52 37 8
a 37 38 5
a 38 37 5
a 38 53 10
a 53 38 10
a 38 39 3
a 39 38 3
a 39 54 2
a 54 39 2
a 39 40 9
a 40 39 9
a 40 55 6
a 55 40 6
a 40 41 3
a 41 40 3
a 41 56 10
a 56 41 10
a 41 42 4
a 42 41 4
a 42 57 3
a 57 42 3
a 42 43 9
a 43 42 9
a 43 58 2
a 58 43 2
a 43 44 2
a 44 43 2
a 44 59 1
a 59 44 1
a 44 45 10
a 45 44 10
a 45 60 10
a 60 45 10
a 46 61 3
a 61 46 3
a 46 47 4
a 47 46 4
a 47 62 6
a 62 47 6
a 47 48 4
a 48 47 4
a 48 63 10
a 63 48 10
a 48 49 7
a 49 48 7
a 49 64 4
a 64 49 4
a 49 50 8
a 50 49 8
a 50 65 7
a 65 50 7
a 50 51 7
a 51 50 7
a 51 66 10
a 66 51 10
a 51 52 3
a 52 51 3
a 52 67 4
a 67 52 4
a 52 53 10
a 53 52 10
a 53 68 7
a 68 53 7
a 53 54 6
a 54 53 6
a 54 69 1
a 69 54 1
a 54 55 7
a 55 54 7
a 55 70 5
a 70 55 5
a 55 56 10
a 56 55 10
a 56 71 8
a 71 56 8
a 56 57 1
a 57 56 1
a 57 72 9
a 72 57 9
a 57 58 1
a 58 57 1
a 58 73 4
a 73 58 4
a 58 59 4
a 59 58 4
a 59 74 9
a 74 59 9
a 59 60 2
a 60 59 2
a 60 75 1
a 75 60 1
a 61 76 10
a 76 61 10
a 61 62 10
a 62 61 10
a 62 77 2
a 77 62 2
a 62 63 2
a 63 62 2
a 63 78 4
a 78 63 4
a 63 64 4
a 64 63 4
a 64 79 3
a 79 64 3
a 64 65 7
a 65 64 7
a 65 80 8
a 80 65 8
a 65 66 6
a 66 65 6
a 66 81 4
a 81 66 4
a 66 67 2
a 67 66 2
a 67 82 4
a 82 67 4
a 67 68 3
a 68 67 3
a 68 83 5
a 83 68 5
a 68 69 7
a 69 68 7
a 69 84 10
a 84 69 10
a 69 70 2
a 70 69 2
a 70 85 6
a 85 70 6
a 70 71 9
a 71 70 9
a 71 86 4
a 86 71 4
a 71 72 10
a 72 71 10
a 72 87 8
a 87 72 8
a 72 73 2
a 73 72 2
a 73 88 6
a 88 73 6
a 73 74 4
a 74 73 4
a 74 89 7
a 89 74 7
a 74 75 2
a 75 74 2
a 75 90 1
a 90 75 1
a 76 91 3
a 91 76 3
a 76 77 8
a 77 76 8
a 77 92 2
a 92 77 2
a 77 78 9
a 78 77 9
a 78 93 4
a 93 78 4
a 78 79 5
a 79 78 5
a 79 80 1
a 80 79 1
a 80 95 4
a 95 80 4
a 80 81 6
a 81 80 6
a 81 96 10
a 96 81 10
a 81 82 8
a 82 81 8
a 82 97 7
a 97 82 7
a 82 83 9
a 83 82 9
a 83 98 10
a 98 83 10
a 83 84 7
a 84 83 7
a 84 99 2
a 99 84 2
a 84 85 5
a 85 84 5
a 85 86 4
a 86 85 4
a 86 101 4
a 101 86 4
a 86 87 3
a 87 86 3
a 87 102 4
a 102 87 4
a 87 88 5
a 88 87 5
a 88 89 4
a 89 88 4
a 89 104 3
a 104 89 3
a 89 90 8
a 90 89 8
a 90 105 5
a 105 90 5
a 91 106 8
a 106 91 8
a 91 92 9
a 92 91 9
a 92 107 8
a 107 92 8
a 92 93 7
a 93 92 7
a 93 108 5
a 108 93 5
a 95 110 2
a 110 95 2
a 95 96 5
a 96 95 5
a 96 111 7
a 111 96 7
a 96 97 9
a 97 96 9
a 97 112 9
a 112 97 9
a 97 98 8
a 98 97 8
a 98 113 1
a 113 98 1
a 98 99 5
a 99 98 5
a 99 114 8
a 114 99 8
a 101 116 9
a 116 101 9
a 101 102 7
a 102 101 7
a 102 117 10
a 117 102 10
a 104 119 6
a 119 104 6
a 104 105 10
a 105 104 10
a 105 120 7
a 120 105 7
a 106 121 3
a 121 106 3
a 106 107 7
a 107 106 7
a 107 122 1
a 122 107 1
a 107 108 6
a 108 107 6
a 108 123 9
a 123 108 9
a 110 125 6
a 125 110 6
a 110 111 8
a 111 110 8
a 111 126 8
a 126 111 8
a 111 112 3
a 112 111 3
a 112 127 6
a 127 112 6
a 112 113 1
a 113 112 1
a 113 128 6
a 128 113 6
a 113 114 8
a 114 113 8
a 114 129 2
a 129 114 2
a 114 115 10
a 115 114 10
a 115 130 1
a 130 115 1
a 115 116 8
a 116 115 8
a 116 131 10
a 131 116 10
a 116 117 10
a 117 116 10
a 117 132 2
a 132 117 2
a 117 118 4
a 118 117 4
a 118 133 5
a 133 118 5
a 118 119 5
a 119 118 5
a 119 134 5
a 134 119 5
a 119 120 4
a 120 119 4
a 120 135 1
a 135 120 1
a 121 136 10
a 136 121 10
a 121 122 7
a 122 121 7
a 122 137 6
a 137 122 6
a 122 123 8
a 123 122 8
a 123 138 6
a 138 123 6
a 123 124 10
a 124 123 10
a 124 139 5
a 139 124 5
a 124 125 8
a 125 124 8
a 125 140 7
a 140 125 7
a 125 126 8
a 126 125 8
a 126 141 10
a 141 126 10
a 126 127 2
a 127 126 2
a 127 142 9
a 142 127 9
a 127 128 10
a 128 127 10
a 128 143 2
a 143 128 2
a 128 129 7
a 129 128 7
a 129 144 10
a 144 129 10
a 129 130 8
a 130 129 8
a 130 145 3
a 145 130 3
a 130 131 5
a 131 130 5
a 131 146 10
a 146 131 10
a 131 132 7
a 132 131 7
a 132 147 6
a 147 132 6
a 132 133 6
a 133 132 6
a 133 148 3
a 148 133 3
a 133 134 10
a 134 133 10
a 134 135 2
a 135 134 2
a 136 151 6
a 151 136 6
a 136 137 10
a 137 136 10
a 137 152 8
a 152 137 8
a 137 138 8
a 138 137 8
a 138 153 3
a 153 138 3
a 138 139 2
a 139 138 2
a 139 154 1
a 154 139 1
a 139 140 5
a 140 139 5
a 140 155 10
a 155 140 10
a 140 141 1
a 141 140 1
a 141 156 8
a 156 141 8
a 141 142 6
a 142 141 6
a 142 157 3
a 157 142 3
a 142 143 9
a 143 142 9
a 143 158 6
a 158 143 6
a 143 144 10
a 144 143 10
a 144 159 4
a 159 144 4
a 144 145 4
a 145 144 4
a 145 160 6
a 160 145 6
a 145 146 5
a 146 145 5
a 146 161 10
a 161 146 10
a 146 147 9
a 147 146 9
a 147 162 3
a 162 147 3
a 147 148 4
a 148 147 4
a 148 163 10
a 163 148 10
a 151 166 4
a 166 151 4
a 151 152 4
a 152 151 4
a 152 167 9
a 167 152 9
a 152 153 3
a 153 152 3
a 153 168 8
a 168 153 8
a 153 154 5
a 154 153 5
a 154 169 2
a 169 154 2
a 154 155 6
a 155 154 6
a 155 156 6
a 156 155 6
a 156 171 6
a 171 156 6
a 156 157 10
a 157 156 10
a 157 172 1
a 172 157 1
a 157 158 1
a 158 157 1
a 158 173 9
a 173 158 9
a 158 159 9
a 159 158 9
a 159 174 9
a 174 159 9
a 159 160 7
a 160 159 7
a 160 175 5
a 175 160 5
a 160 161 5
a 161 160 5
a 161 176 9
a 176 161 9
a 161 162 3
a 162 161 3
a 162 177 10
a 177 162 10
a 162 163 3
a 163 162 3
a 163 178 5
a 178 163 5
a 163 164 8
a 164 163 8
a 164 179 9
a 179 164 9
a 164 165 9
a 165 164 9
a 165 180 8
a 180 165 8
a 166 181 2
a 181 166 2
a 166 167 1
a 167 166 1
a 167 168 5
a 168 167 5
a 168 183 4
a 183 168 4
a 168 169 10
a 169 168 10
a 169 184 9
a 184 169 9
a 171 186 2
a 186 171 2
a 171 172 9
a 172 171 9
a 172 187 5
a 187 172 5
a 172 173 4
a 173 172 4
a 173 188 5
a 188 173 5
a 173 174 1
a 174 173 1
a 174 189 4
a 189 174 4
a 174 175 2
a 175 174 2
a 175 190 2
a 190 175 2
a 175 176 1
a 176 175 1
a 176 191 3
a 191 176 3
a 176 177 7
a 177 176 7
a 177 178 1
a 178 177 1
a 178 193 7
a 193 178 7
a 178 179 10
a 179 178 10
a 179 194 10
a 194 179 10
a 179 180 5
a 180 179 5
a 180 195 10
a 195 180 10
a 181 196 2
a 196 181 2
a 183 198 8
a 198 183 8
a 183 184 7
a 184 183 7
a 184 199 9
a 199 184 9
a 184 185 6
a 185 184 6
a 185 200 1
a 200 185 1
a 185 186 10
a 186 185 10
a 186 201 4
a 201 186 4
a 186 187 7
a 187 186 7
a 187 202 8
a 202 187 8
a 187 188 10
a 188 187 10
a 188 203 1
a 203 188 1
a 188 189 1
a 189 188 1
a 189 204 7
a 204 189 7
a 189 190 7
a 190 189 7
a 190 205 9
a 205 190 9
a 190 191 10
a 191 190 10
a 191 206 1
a 206 191 1
a 193 208 8
a 208 193 8
a 193 194 4
a 194 193 4
a 194 209 2
a 209 194 2
a 194 195 3
a 195 194 3
a 195 210 3
a 210 195 3
a 196 211 4
a 211 196 4
a 196 197 8
a 197 196 8
a 197 212 2
a 212 197 2
a 197 198 9
a 198 197 9
a 198 213 2
a 213 198 2
a 198 199 7
a 199 198 7
a 199 214 3
a 214 199 3
a 199 200 5
a 200 199 5
a 200 215 6
a 215 200 6
a 200 201 4
a 201 200 4
a 201 216 8
a 216 201 8
a 201 202 8
a 202 201 8
a 202 217 10
a 217 202 10
a 202 203 4
a 203 202 4
a 203 218 10
a 218 203 10
a 203 204 10
a 204 203 10
a 204 205 4
a 205 204 4
a 205 220 8
a 220 205 8
a 205 206 2
a 206 205 2
a 206 221 8
a 221 206 8
a 206 207 8
a 207 206 8
a 207 222 7
a 222 207 7
a 207 208 4
a 208 207 4
a 208 223 4
a 223 208 4
a 208 209 4
a 209 208 4
a 209 224 10
a 224 209 10
a 209 210 7
a 210 209 7
a 210 225 9
a 225 210 9
a 211 212 7
a 212 211 7
a 212 213 6
a 213 212 6
a 213 214 1
a 214 213 1
a 214 215 10
a 215 214 10
a 215 216 7
a 216 215 7
a 216 217 6
a 217 216 6
a 217 218 2
a 218 217 2
a 220 221 7
a 221 220 7
a 221 222 6
a 222 221 6
a 222 223 2
a 223 222 2
a 223 224 9
a 224 223 9
a 224 225 3
a 225 224 3
